Gurobi 12.0.3:   lim:time = 14400

  mip:bestbound = 1

Set parameter LogToConsole to value 1

  tech:outlev = 1

Set parameter Cuts to value 3

  cut:cuts = 3

Set parameter Presolve to value 2

  pre:solve = 2

Set parameter MIPFocus to value 2

  mip:focus = 2

Set parameter Symmetry to value 2

  mip:symmetry = 2

Set parameter InfUnbdInfo to value 1

Gurobi Optimizer version 12.0.3 build v12.0.3rc0 (win64 - Windows 10.0 (19045.2))



CPU model: Intel(R) Core(TM) i7-10700 CPU @ 2.90GHz, instruction set [SSE2|AVX|AVX2]

Thread count: 8 physical cores, 16 logical processors, using up to 16 threads



Non-default parameters:

TimeLimit  14400

MIPFocus  2

Symmetry  2

Cuts  3

InfUnbdInfo  1

Presolve  2



Optimize a model with 388 rows, 798 columns and 4455 nonzeros

Model fingerprint: 0x0dcf432b

Model has 4 quadratic objective terms

Model has 8 quadratic constraints

Variable types: 37 continuous, 761 integer (0 binary)

Coefficient statistics:

  Matrix range     [1e+00, 1e+05]

  QMatrix range    [1e+00, 1e+00]

  QLMatrix range   [1e+00, 1e+01]

  Objective range  [6e+00, 1e+02]

  QObjective range [2e+00, 2e+00]

  Bounds range     [1e+00, 1e+02]

  RHS range        [1e+00, 1e+05]

  QRHS range       [1e+02, 1e+02]

Presolve removed 26 rows and 69 columns

Presolve time: 0.19s

Presolved: 860 rows, 1213 columns, 7230 nonzeros

Variable types: 213 continuous, 1000 integer (894 binary)

Root relaxation presolve removed 34 rows and 3 columns

Root relaxation presolved: 627 rows, 1025 columns, 12303 nonzeros





Root relaxation: objective 5.811387e+01, 120 iterations, 0.02 seconds (0.02 work units)



    Nodes    |    Current Node    |     Objective Bounds      |     Work

 Expl Unexpl |  Obj  Depth IntInf | Incumbent    BestBd   Gap | It/Node Time



     0     0   58.11387    0   31          -   58.11387      -     -    0s

H    0     0                     478.0500000   58.11387  87.8%     -    0s

     0     0  102.75929    0   39  478.05000  102.75929  78.5%     -    0s

H    0     0                     437.6400000  102.75929  76.5%     -    0s

H    0     0                     422.6400000  102.75929  75.7%     -    0s

     0     0  102.75929    0   63  422.64000  102.75929  75.7%     -    0s

     0     0  102.75929    0   80  422.64000  102.75929  75.7%     -    0s

     0     0  107.03881    0   54  422.64000  107.03881  74.7%     -    0s

     0     0  108.15044    0   55  422.64000  108.15044  74.4%     -    0s

H    0     0                     408.9500000  115.70392  71.7%     -    0s

H    0     0                     408.7400000  115.70392  71.7%     -    0s

     0     0  118.42794    0   80  408.74000  118.42794  71.0%     -    0s

     0     0  118.96261    0   89  408.74000  118.96261  70.9%     -    0s

H    0     0                     388.2400000  118.96261  69.4%     -    1s

     0     0  120.47875    0   70  388.24000  120.47875  69.0%     -    1s

     0     0  120.56112    0   56  388.24000  120.56112  68.9%     -    1s

H    0     0                     276.7800000  120.56112  56.4%     -    1s

H    0     0                     276.5700000  120.56112  56.4%     -    1s

     0     0  124.09917    0   24  276.57000  124.09917  55.1%     -    1s

     0     0  124.09917    0   21  276.57000  124.09917  55.1%     -    1s

     0     0  127.08157    0   21  276.57000  127.08157  54.1%     -    1s

     0     0  127.08157    0   35  276.57000  127.08157  54.1%     -    1s

     0     0  130.76262    0   14  276.57000  130.76262  52.7%     -    1s

     0     0  130.76262    0   14  276.57000  130.76262  52.7%     -    1s

     0     0  145.65725    0   81  276.57000  145.65725  47.3%     -    2s

     0     0  145.65725    0   81  276.57000  145.65725  47.3%     -    2s

     0     2  145.65725    0   81  276.57000  145.65725  47.3%     -    2s

  2853   993  207.52957   19  105  276.57000  167.41575  39.5%  20.7    5s

  4323  1153  228.18821   31   21  276.57000  180.40904  34.8%  23.3   10s

 14313  2740 infeasible   47       276.57000  213.50077  22.8%  22.7   15s

 26311  3327  237.19110   35   46  276.57000  230.58433  16.6%  22.2   20s

 38755  2206 infeasible   29       276.57000  248.55125  10.1%  21.7   25s



Cutting planes:

  Learned: 15

  Gomory: 22

  Lift-and-project: 8

  Cover: 55

  Implied bound: 95

  Projected implied bound: 11

  Clique: 30

  MIR: 69

  Mixing: 2

  StrongCG: 4

  Flow cover: 319

  GUB cover: 4

  Inf proof: 43

  Zero half: 156

  RLT: 57

  Relax-and-lift: 58



Explored 46221 nodes (976202 simplex iterations) in 28.00 seconds (16.05 work units)

Thread count was 16 (of 16 available processors)



Solution count 9: 276.57 276.57 276.78 ... 478.05



Optimal solution found (tolerance 1.00e-04)

Best objective 2.765700000000e+02, best bound 2.765700000000e+02, gap 0.0000%



AMPL MP initial flat model has 798 variables (0 integer, 761 binary);

Objectives: 1 quadratic; 

Constraints:  388 linear; 8 quadratic;



AMPL MP final model has 798 variables (0 integer, 761 binary);

Objectives: 1 quadratic; 

Constraints:  388 linear; 8 quadratic;





-----RESULTS INFO-----
running_time:  28.046
TC.best_bound:  276.5699999999999
TC:  276.57
MIP Gap (%):  4.110599042615469e-14
=== Vehicle Routes ===
Vehicle 1: 0 → 1
Vehicle 1: 1 → 2
Vehicle 1: 2 → 11
Vehicle 1: 11 → 18
Vehicle 2: 0 → 13
Vehicle 2: 13 → 16
Vehicle 2: 16 → 18
Vehicle 3: 0 → 18
Vehicle 4: 0 → 18

=== Full Vehicle Routes ===
Vehicle 1: 0 → 1 → 2 → 11 → 0 (48<100)
Vehicle 2: 0 → 13 → 16 → 0 (90<100)
Vehicle 3: 0 → 0 (0<100)
Vehicle 4: 0 → 0 (0<100)
Arc used by MRT line: y variables:
MRT used: 13 → 14
Customer assigment to PL: u variables:
3 16
4 14
5 11
6 16
7 16
8 11
9 14
10 16
Node is served by regular vehicle: g variables:
1
2
11
13
16
Customer assigment to Home delivery: gm variables:
1
2
Node total demands: ntd variables:
1 13 1
2 12 1
7 0 0
8 0 0
9 0 0
10 0 0
17 0 0
11 23 1
12 0 0
13 36 1
14 0 0
15 0 0
16 54 1
Customer's demand delivered to PL: l variables:
3
4
5
6
7
8
9
10
Lockers load <= capacity:
0 <= 79
23 <= 70
0 <= 82
0 <= 88
36 <= 75
0 <= 94
54 <= 95
